\ENCODING=ISO-8859-1
\Problem name: lpex1

Minimize
 obj1: 488 x0_0 + 411 x0_1 + 479 x0_2 + 445 x0_3 + 458 x0_4 + 196 x0_5
       + 587 x0_6 + 230 x0_7 + 273 x0_8 + 213 x0_9 + 149 x0_10 + 449 x0_11
       + 73 x0_12 + 481 x0_13 + 339 x0_14 + 86 x0_15 + 131 x0_16 + 320 x0_17
       + 60 x0_18 + 133 x0_19 + 75 x0_20 + 230 x0_21 + 62 x0_22 + 186 x0_23
       + 389 x0_24 + 103 x0_25 + 253 x0_26 + 426 x0_27 + 454 x0_28 + 123 x0_29
       + 624 x0_30 + 546 x0_31 + 275 x0_32 + 202 x0_33 + 331 x0_34 + 159 x0_35
       + 137 x0_36 + 482 x0_37 + 179 x0_38 + 396 x0_39 + 80 x0_40 + 189 x0_41
       + 801 x0_42 + 238 x0_43 + 481 x0_44 + 462 x0_45 + 312 x0_46 + 476 x0_47
       + 303 x0_48 + 338 x0_49 + 651 x0_50 + 644 x0_51 + 1280 x1_0 + 745 x1_1
       + 116 x1_2 + 779 x1_3 + 394 x1_4 + 782 x1_5 + 1126 x1_6 + 546 x1_7
       + 456 x1_8 + 586 x1_9 + 425 x1_10 + 783 x1_11 + 653 x1_12 + 298 x1_13
       + 485 x1_14 + 516 x1_15 + 722 x1_16 + 313 x1_17 + 570 x1_18 + 511 x1_19
       + 362 x1_20 + 564 x1_21 + 303 x1_22 + 755 x1_23 + 942 x1_24 + 438 x1_25
       + 495 x1_26 + 123 x1_27 + 461 x1_28 + 414 x1_29 + 1040 x1_30 + 637 x1_31
       + 868 x1_32 + 793 x1_33 + 579 x1_34 + 493 x1_35 + 310 x1_36 + 288 x1_37
       + 449 x1_38 + 975 x1_39 + 670 x1_40 + 750 x1_41 + 863 x1_42 + 567 x1_43
       + 712 x1_44 + 171 x1_45 + 387 x1_46 + 1046 x1_47 + 748 x1_48 + 423 x1_49
       + 921 x1_50 + 1773 x1_51 + 993 x2_0 + 319 x2_1 + 667 x2_2 + 390 x2_3
       + 660 x2_4 + 172 x2_5 + 649 x2_6 + 343 x2_7 + 547 x2_8 + 480 x2_9
       + 195 x2_10 + 288 x2_11 + 287 x2_12 + 682 x2_13 + 322 x2_14 + 301 x2_15
       + 202 x2_16 + 567 x2_17 + 251 x2_18 + 408 x2_19 + 277 x2_20 + 302 x2_21
       + 263 x2_22 + 123 x2_23 + 169 x2_24 + 188 x2_25 + 455 x2_26 + 625 x2_27
       + 656 x2_28 + 321 x2_29 + 792 x2_30 + 818 x2_31 + 249 x2_32 + 262 x2_33
       + 488 x2_34 + 307 x2_35 + 339 x2_36 + 579 x2_37 + 377 x2_38 + 422 x2_39
       + 222 x2_40 + 344 x2_41 + 657 x2_42 + 389 x2_43 + 626 x2_44 + 688 x2_45
       + 514 x2_46 + 282 x2_47 + 517 x2_48 + 397 x2_49 + 881 x2_50 + 281 x2_51
       + 678 x3_0 + 206 x3_1 + 778 x3_2 + 224 x3_3 + 673 x3_4 + 173 x3_5
       + 319 x3_6 + 123 x3_7 + 494 x3_8 + 363 x3_9 + 288 x3_10 + 383 x3_11
       + 237 x3_12 + 704 x3_13 + 428 x3_14 + 389 x3_15 + 196 x3_16 + 595 x3_17
       + 345 x3_18 + 386 x3_19 + 245 x3_20 + 94 x3_21 + 285 x3_22 + 228 x3_23
       + 294 x3_24 + 219 x3_25 + 354 x3_26 + 650 x3_27 + 595 x3_28 + 219 x3_29
       + 477 x3_30 + 659 x3_31 + 88 x3_32 + 105 x3_33 + 305 x3_34 + 140 x3_35
       + 361 x3_36 + 781 x3_37 + 275 x3_38 + 97 x3_39 + 238 x3_40 + 151 x3_41
       + 989 x3_42 + 206 x3_43 + 401 x3_44 + 746 x3_45 + 414 x3_46 + 304 x3_47
       + 286 x3_48 + 620 x3_49 + 617 x3_50 + 476 x3_51
Subject To
 q0:     q0_0 + q1_0 + q2_0 + q3_0  = 27
 q1:     q0_1 + q1_1 + q2_1 + q3_1  = 23
 q2:     q0_2 + q1_2 + q2_2 + q3_2  = 28
 q3:     q0_3 + q1_3 + q2_3 + q3_3  = 23
 q4:     q0_4 + q1_4 + q2_4 + q3_4  = 19
 q5:     q0_5 + q1_5 + q2_5 + q3_5  = 17
 q6:     q0_6 + q1_6 + q2_6 + q3_6  = 19
 q7:     q0_7 + q1_7 + q2_7 + q3_7  = 14
 q8:     q0_8 + q1_8 + q2_8 + q3_8  = 28
 q9:     q0_9 + q1_9 + q2_9 + q3_9  = 17
 q10:    q0_10 + q1_10 + q2_10 + q3_10  = 20
 q11:    q0_11 + q1_11 + q2_11 + q3_11  = 15
 q12:    q0_12 + q1_12 + q2_12 + q3_12  = 27
 q13:    q0_13 + q1_13 + q2_13 + q3_13  = 26
 q14:    q0_14 + q1_14 + q2_14 + q3_14  = 29
 q15:    q0_15 + q1_15 + q2_15 + q3_15  = 23
 q16:    q0_16 + q1_16 + q2_16 + q3_16  = 21
 q17:    q0_17 + q1_17 + q2_17 + q3_17  = 14
 q18:    q0_18 + q1_18 + q2_18 + q3_18  = 18
 q19:    q0_19 + q1_19 + q2_19 + q3_19  = 12
 q20:    q0_20 + q1_20 + q2_20 + q3_20  = 28
 q21:    q0_21 + q1_21 + q2_21 + q3_21  = 30
 q22:    q0_22 + q1_22 + q2_22 + q3_22  = 34
 q23:    q0_23 + q1_23 + q2_23 + q3_23  = 18
 q24:    q0_24 + q1_24 + q2_24 + q3_24  = 17
 q25:    q0_25 + q1_25 + q2_25 + q3_25  = 20
 q26:    q0_26 + q1_26 + q2_26 + q3_26  = 17
 q27:    q0_27 + q1_27 + q2_27 + q3_27  = 19
 q28:    q0_28 + q1_28 + q2_28 + q3_28  = 11
 q29:    q0_29 + q1_29 + q2_29 + q3_29  = 28
 q30:    q0_30 + q1_30 + q2_30 + q3_30  = 11
 q31:    q0_31 + q1_31 + q2_31 + q3_31  = 14
 q32:    q0_32 + q1_32 + q2_32 + q3_32  = 16
 q33:    q0_33 + q1_33 + q2_33 + q3_33  = 29
 q34:    q0_34 + q1_34 + q2_34 + q3_34  = 12
 q35:    q0_35 + q1_35 + q2_35 + q3_35  = 18
 q36:    q0_36 + q1_36 + q2_36 + q3_36  = 29
 q37:    q0_37 + q1_37 + q2_37 + q3_37  = 25
 q38:    q0_38 + q1_38 + q2_38 + q3_38  = 20
 q39:    q0_39 + q1_39 + q2_39 + q3_39  = 26
 q40:    q0_40 + q1_40 + q2_40 + q3_40  = 14
 q41:    q0_41 + q1_41 + q2_41 + q3_41  = 9
 q42:    q0_42 + q1_42 + q2_42 + q3_42  = 17
 q43:    q0_43 + q1_43 + q2_43 + q3_43  = 26
 q44:    q0_44 + q1_44 + q2_44 + q3_44  = 14
 q45:    q0_45 + q1_45 + q2_45 + q3_45  = 17
 q46:    q0_46 + q1_46 + q2_46 + q3_46  = 20
 q47:    q0_47 + q1_47 + q2_47 + q3_47  = 5
 q48:    q0_48 + q1_48 + q2_48 + q3_48  = 14
 q49:    q0_49 + q1_49 + q2_49 + q3_49  = 21
 q50:    q0_50 + q1_50 + q2_50 + q3_50  = 32
 q51:    q0_51 + q1_51 + q2_51 + q3_51  = 16
 b0:     x0_0 + x1_0 + x2_0 + x3_0 <= 1
 b1:     x0_1 + x1_1 + x2_1 + x3_1 <= 1
 b2:     x0_2 + x1_2 + x2_2 + x3_2 <= 1
 b3:     x0_3 + x1_3 + x2_3 + x3_3 <= 1
 b4:     x0_4 + x1_4 + x2_4 + x3_4 <= 1
 b5:     x0_5 + x1_5 + x2_5 + x3_5 <= 1
 b6:     x0_6 + x1_6 + x2_6 + x3_6 <= 1
 b7:     x0_7 + x1_7 + x2_7 + x3_7 <= 1
 b8:     x0_8 + x1_8 + x2_8 + x3_8 <= 1
 b9:     x0_9 + x1_9 + x2_9 + x3_9 <= 1
 b10:    x0_10 + x1_10 + x2_10 + x3_10 <= 1
 b11:    x0_11 + x1_11 + x2_11 + x3_11 <= 1
 b12:    x0_12 + x1_12 + x2_12 + x3_12 <= 1
 b13:    x0_13 + x1_13 + x2_13 + x3_13 <= 1
 b14:    x0_14 + x1_14 + x2_14 + x3_14 <= 1
 b15:    x0_15 + x1_15 + x2_15 + x3_15 <= 1
 b16:    x0_16 + x1_16 + x2_16 + x3_16 <= 1
 b17:    x0_17 + x1_17 + x2_17 + x3_17 <= 1
 b18:    x0_18 + x1_18 + x2_18 + x3_18 <= 1
 b19:    x0_19 + x1_19 + x2_19 + x3_19 <= 1
 b20:    x0_20 + x1_20 + x2_20 + x3_20 <= 1
 b21:    x0_21 + x1_21 + x2_21 + x3_21 <= 1
 b22:    x0_22 + x1_22 + x2_22 + x3_22 <= 1
 b23:    x0_23 + x1_23 + x2_23 + x3_23 <= 1
 b24:    x0_24 + x1_24 + x2_24 + x3_24 <= 1
 b25:    x0_25 + x1_25 + x2_25 + x3_25 <= 1
 b26:    x0_26 + x1_26 + x2_26 + x3_26 <= 1
 b27:    x0_27 + x1_27 + x2_27 + x3_27 <= 1
 b28:    x0_28 + x1_28 + x2_28 + x3_28 <= 1
 b29:    x0_29 + x1_29 + x2_29 + x3_29 <= 1
 b30:    x0_30 + x1_30 + x2_30 + x3_30 <= 1
 b31:    x0_31 + x1_31 + x2_31 + x3_31 <= 1
 b32:    x0_32 + x1_32 + x2_32 + x3_32 <= 1
 b33:    x0_33 + x1_33 + x2_33 + x3_33 <= 1
 b34:    x0_34 + x1_34 + x2_34 + x3_34 <= 1
 b35:    x0_35 + x1_35 + x2_35 + x3_35 <= 1
 b36:    x0_36 + x1_36 + x2_36 + x3_36 <= 1
 b37:    x0_37 + x1_37 + x2_37 + x3_37 <= 1
 b38:    x0_38 + x1_38 + x2_38 + x3_38 <= 1
 b39:    x0_39 + x1_39 + x2_39 + x3_39 <= 1
 b40:    x0_40 + x1_40 + x2_40 + x3_40 <= 1
 b41:    x0_41 + x1_41 + x2_41 + x3_41 <= 1
 b42:    x0_42 + x1_42 + x2_42 + x3_42 <= 1
 b43:    x0_43 + x1_43 + x2_43 + x3_43 <= 1
 b44:    x0_44 + x1_44 + x2_44 + x3_44 <= 1
 b45:    x0_45 + x1_45 + x2_45 + x3_45 <= 1
 b46:    x0_46 + x1_46 + x2_46 + x3_46 <= 1
 b47:    x0_47 + x1_47 + x2_47 + x3_47 <= 1
 b48:    x0_48 + x1_48 + x2_48 + x3_48 <= 1
 b49:    x0_49 + x1_49 + x2_49 + x3_49 <= 1
 b50:    x0_50 + x1_50 + x2_50 + x3_50 <= 1
 b51:    x0_51 + x1_51 + x2_51 + x3_51 <= 1
 cap0:   q0_0 + q0_1 + q0_2 + q0_3 + q0_4 + q0_5 + q0_6 + q0_7 + q0_8 + q0_9
         + q0_10 + q0_11 + q0_12 + q0_13 + q0_14 + q0_15 + q0_16 + q0_17
         + q0_18 + q0_19 + q0_20 + q0_21 + q0_22 + q0_23 + q0_24 + q0_25
         + q0_26 + q0_27 + q0_28 + q0_29 + q0_30 + q0_31 + q0_32 + q0_33
         + q0_34 + q0_35 + q0_36 + q0_37 + q0_38 + q0_39 + q0_40 + q0_41
         + q0_42 + q0_43 + q0_44 + q0_45 + q0_46 + q0_47 + q0_48 + q0_49
         + q0_50 + q0_51 <= 120
 cap1:   q1_0 + q1_1 + q1_2 + q1_3 + q1_4 + q1_5 + q1_6 + q1_7 + q1_8 + q1_9
         + q1_10 + q1_11 + q1_12 + q1_13 + q1_14 + q1_15 + q1_16 + q1_17
         + q1_18 + q1_19 + q1_20 + q1_21 + q1_22 + q1_23 + q1_24 + q1_25
         + q1_26 + q1_27 + q1_28 + q1_29 + q1_30 + q1_31 + q1_32 + q1_33
         + q1_34 + q1_35 + q1_36 + q1_37 + q1_38 + q1_39 + q1_40 + q1_41
         + q1_42 + q1_43 + q1_44 + q1_45 + q1_46 + q1_47 + q1_48 + q1_49
         + q1_50 + q1_51 <= 1000
 cap2:   q2_0 + q2_1 + q2_2 + q2_3 + q2_4 + q2_5 + q2_6 + q2_7 + q2_8 + q2_9
         + q2_10 + q2_11 + q2_12 + q2_13 + q2_14 + q2_15 + q2_16 + q2_17
         + q2_18 + q2_19 + q2_20 + q2_21 + q2_22 + q2_23 + q2_24 + q2_25
         + q2_26 + q2_27 + q2_28 + q2_29 + q2_30 + q2_31 + q2_32 + q2_33
         + q2_34 + q2_35 + q2_36 + q2_37 + q2_38 + q2_39 + q2_40 + q2_41
         + q2_42 + q2_43 + q2_44 + q2_45 + q2_46 + q2_47 + q2_48 + q2_49
         + q2_50 + q2_51 <= 300
 cap3:   q3_0 + q3_1 + q3_2 + q3_3 + q3_4 + q3_5 + q3_6 + q3_7 + q3_8 + q3_9
         + q3_10 + q3_11 + q3_12 + q3_13 + q3_14 + q3_15 + q3_16 + q3_17
         + q3_18 + q3_19 + q3_20 + q3_21 + q3_22 + q3_23 + q3_24 + q3_25
         + q3_26 + q3_27 + q3_28 + q3_29 + q3_30 + q3_31 + q3_32 + q3_33
         + q3_34 + q3_35 + q3_36 + q3_37 + q3_38 + q3_39 + q3_40 + q3_41
         + q3_42 + q3_43 + q3_44 + q3_45 + q3_46 + q3_47 + q3_48 + q3_49
         + q3_50 + q3_51 <= 180
 xq0_0:  - 27 x0_0 + q0_0 <= 0
 xq0_1:  - 23 x0_1 + q0_1 <= 0
 xq0_2:  - 28 x0_2 + q0_2 <= 0
 xq0_3:  - 23 x0_3 + q0_3 <= 0
 xq0_4:  - 19 x0_4 + q0_4 <= 0
 xq0_5:  - 17 x0_5 + q0_5 <= 0
 xq0_6:  - 19 x0_6 + q0_6 <= 0
 xq0_7:  - 14 x0_7 + q0_7 <= 0
 xq0_8:  - 28 x0_8 + q0_8 <= 0
 xq0_9:  - 17 x0_9 + q0_9 <= 0
 xq0_10: - 20 x0_10 + q0_10 <= 0
 xq0_11: - 15 x0_11 + q0_11 <= 0
 xq0_12: - 27 x0_12 + q0_12 <= 0
 xq0_13: - 26 x0_13 + q0_13 <= 0
 xq0_14: - 29 x0_14 + q0_14 <= 0
 xq0_15: - 23 x0_15 + q0_15 <= 0
 xq0_16: - 21 x0_16 + q0_16 <= 0
 xq0_17: - 14 x0_17 + q0_17 <= 0
 xq0_18: - 18 x0_18 + q0_18 <= 0
 xq0_19: - 12 x0_19 + q0_19 <= 0
 xq0_20: - 28 x0_20 + q0_20 <= 0
 xq0_21: - 30 x0_21 + q0_21 <= 0
 xq0_22: - 34 x0_22 + q0_22 <= 0
 xq0_23: - 18 x0_23 + q0_23 <= 0
 xq0_24: - 17 x0_24 + q0_24 <= 0
 xq0_25: - 20 x0_25 + q0_25 <= 0
 xq0_26: - 17 x0_26 + q0_26 <= 0
 xq0_27: - 19 x0_27 + q0_27 <= 0
 xq0_28: - 11 x0_28 + q0_28 <= 0
 xq0_29: - 28 x0_29 + q0_29 <= 0
 xq0_30: - 11 x0_30 + q0_30 <= 0
 xq0_31: - 14 x0_31 + q0_31 <= 0
 xq0_32: - 16 x0_32 + q0_32 <= 0
 xq0_33: - 29 x0_33 + q0_33 <= 0
 xq0_34: - 12 x0_34 + q0_34 <= 0
 xq0_35: - 18 x0_35 + q0_35 <= 0
 xq0_36: - 29 x0_36 + q0_36 <= 0
 xq0_37: - 25 x0_37 + q0_37 <= 0
 xq0_38: - 20 x0_38 + q0_38 <= 0
 xq0_39: - 26 x0_39 + q0_39 <= 0
 xq0_40: - 14 x0_40 + q0_40 <= 0
 xq0_41: - 9 x0_41 + q0_41 <= 0
 xq0_42: - 17 x0_42 + q0_42 <= 0
 xq0_43: - 26 x0_43 + q0_43 <= 0
 xq0_44: - 14 x0_44 + q0_44 <= 0
 xq0_45: - 17 x0_45 + q0_45 <= 0
 xq0_46: - 20 x0_46 + q0_46 <= 0
 xq0_47: - 5 x0_47 + q0_47 <= 0
 xq0_48: - 14 x0_48 + q0_48 <= 0
 xq0_49: - 21 x0_49 + q0_49 <= 0
 xq0_50: - 32 x0_50 + q0_50 <= 0
 xq0_51: - 16 x0_51 + q0_51 <= 0
 xq1_0:  - 27 x1_0 + q1_0 <= 0
 xq1_1:  - 23 x1_1 + q1_1 <= 0
 xq1_2:  - 28 x1_2 + q1_2 <= 0
 xq1_3:  - 23 x1_3 + q1_3 <= 0
 xq1_4:  - 19 x1_4 + q1_4 <= 0
 xq1_5:  - 17 x1_5 + q1_5 <= 0
 xq1_6:  - 19 x1_6 + q1_6 <= 0
 xq1_7:  - 14 x1_7 + q1_7 <= 0
 xq1_8:  - 28 x1_8 + q1_8 <= 0
 xq1_9:  - 17 x1_9 + q1_9 <= 0
 xq1_10: - 20 x1_10 + q1_10 <= 0
 xq1_11: - 15 x1_11 + q1_11 <= 0
 xq1_12: - 27 x1_12 + q1_12 <= 0
 xq1_13: - 26 x1_13 + q1_13 <= 0
 xq1_14: - 29 x1_14 + q1_14 <= 0
 xq1_15: - 23 x1_15 + q1_15 <= 0
 xq1_16: - 21 x1_16 + q1_16 <= 0
 xq1_17: - 14 x1_17 + q1_17 <= 0
 xq1_18: - 18 x1_18 + q1_18 <= 0
 xq1_19: - 12 x1_19 + q1_19 <= 0
 xq1_20: - 28 x1_20 + q1_20 <= 0
 xq1_21: - 30 x1_21 + q1_21 <= 0
 xq1_22: - 34 x1_22 + q1_22 <= 0
 xq1_23: - 18 x1_23 + q1_23 <= 0
 xq1_24: - 17 x1_24 + q1_24 <= 0
 xq1_25: - 20 x1_25 + q1_25 <= 0
 xq1_26: - 17 x1_26 + q1_26 <= 0
 xq1_27: - 19 x1_27 + q1_27 <= 0
 xq1_28: - 11 x1_28 + q1_28 <= 0
 xq1_29: - 28 x1_29 + q1_29 <= 0
 xq1_30: - 11 x1_30 + q1_30 <= 0
 xq1_31: - 14 x1_31 + q1_31 <= 0
 xq1_32: - 16 x1_32 + q1_32 <= 0
 xq1_33: - 29 x1_33 + q1_33 <= 0
 xq1_34: - 12 x1_34 + q1_34 <= 0
 xq1_35: - 18 x1_35 + q1_35 <= 0
 xq1_36: - 29 x1_36 + q1_36 <= 0
 xq1_37: - 25 x1_37 + q1_37 <= 0
 xq1_38: - 20 x1_38 + q1_38 <= 0
 xq1_39: - 26 x1_39 + q1_39 <= 0
 xq1_40: - 14 x1_40 + q1_40 <= 0
 xq1_41: - 9 x1_41 + q1_41 <= 0
 xq1_42: - 17 x1_42 + q1_42 <= 0
 xq1_43: - 26 x1_43 + q1_43 <= 0
 xq1_44: - 14 x1_44 + q1_44 <= 0
 xq1_45: - 17 x1_45 + q1_45 <= 0
 xq1_46: - 20 x1_46 + q1_46 <= 0
 xq1_47: - 5 x1_47 + q1_47 <= 0
 xq1_48: - 14 x1_48 + q1_48 <= 0
 xq1_49: - 21 x1_49 + q1_49 <= 0
 xq1_50: - 32 x1_50 + q1_50 <= 0
 xq1_51: - 16 x1_51 + q1_51 <= 0
 xq2_0:  - 27 x2_0 + q2_0 <= 0
 xq2_1:  - 23 x2_1 + q2_1 <= 0
 xq2_2:  - 28 x2_2 + q2_2 <= 0
 xq2_3:  - 23 x2_3 + q2_3 <= 0
 xq2_4:  - 19 x2_4 + q2_4 <= 0
 xq2_5:  - 17 x2_5 + q2_5 <= 0
 xq2_6:  - 19 x2_6 + q2_6 <= 0
 xq2_7:  - 14 x2_7 + q2_7 <= 0
 xq2_8:  - 28 x2_8 + q2_8 <= 0
 xq2_9:  - 17 x2_9 + q2_9 <= 0
 xq2_10: - 20 x2_10 + q2_10 <= 0
 xq2_11: - 15 x2_11 + q2_11 <= 0
 xq2_12: - 27 x2_12 + q2_12 <= 0
 xq2_13: - 26 x2_13 + q2_13 <= 0
 xq2_14: - 29 x2_14 + q2_14 <= 0
 xq2_15: - 23 x2_15 + q2_15 <= 0
 xq2_16: - 21 x2_16 + q2_16 <= 0
 xq2_17: - 14 x2_17 + q2_17 <= 0
 xq2_18: - 18 x2_18 + q2_18 <= 0
 xq2_19: - 12 x2_19 + q2_19 <= 0
 xq2_20: - 28 x2_20 + q2_20 <= 0
 xq2_21: - 30 x2_21 + q2_21 <= 0
 xq2_22: - 34 x2_22 + q2_22 <= 0
 xq2_23: - 18 x2_23 + q2_23 <= 0
 xq2_24: - 17 x2_24 + q2_24 <= 0
 xq2_25: - 20 x2_25 + q2_25 <= 0
 xq2_26: - 17 x2_26 + q2_26 <= 0
 xq2_27: - 19 x2_27 + q2_27 <= 0
 xq2_28: - 11 x2_28 + q2_28 <= 0
 xq2_29: - 28 x2_29 + q2_29 <= 0
 xq2_30: - 11 x2_30 + q2_30 <= 0
 xq2_31: - 14 x2_31 + q2_31 <= 0
 xq2_32: - 16 x2_32 + q2_32 <= 0
 xq2_33: - 29 x2_33 + q2_33 <= 0
 xq2_34: - 12 x2_34 + q2_34 <= 0
 xq2_35: - 18 x2_35 + q2_35 <= 0
 xq2_36: - 29 x2_36 + q2_36 <= 0
 xq2_37: - 25 x2_37 + q2_37 <= 0
 xq2_38: - 20 x2_38 + q2_38 <= 0
 xq2_39: - 26 x2_39 + q2_39 <= 0
 xq2_40: - 14 x2_40 + q2_40 <= 0
 xq2_41: - 9 x2_41 + q2_41 <= 0
 xq2_42: - 17 x2_42 + q2_42 <= 0
 xq2_43: - 26 x2_43 + q2_43 <= 0
 xq2_44: - 14 x2_44 + q2_44 <= 0
 xq2_45: - 17 x2_45 + q2_45 <= 0
 xq2_46: - 20 x2_46 + q2_46 <= 0
 xq2_47: - 5 x2_47 + q2_47 <= 0
 xq2_48: - 14 x2_48 + q2_48 <= 0
 xq2_49: - 21 x2_49 + q2_49 <= 0
 xq2_50: - 32 x2_50 + q2_50 <= 0
 xq2_51: - 16 x2_51 + q2_51 <= 0
 xq3_0:  - 27 x3_0 + q3_0 <= 0
 xq3_1:  - 23 x3_1 + q3_1 <= 0
 xq3_2:  - 28 x3_2 + q3_2 <= 0
 xq3_3:  - 23 x3_3 + q3_3 <= 0
 xq3_4:  - 19 x3_4 + q3_4 <= 0
 xq3_5:  - 17 x3_5 + q3_5 <= 0
 xq3_6:  - 19 x3_6 + q3_6 <= 0
 xq3_7:  - 14 x3_7 + q3_7 <= 0
 xq3_8:  - 28 x3_8 + q3_8 <= 0
 xq3_9:  - 17 x3_9 + q3_9 <= 0
 xq3_10: - 20 x3_10 + q3_10 <= 0
 xq3_11: - 15 x3_11 + q3_11 <= 0
 xq3_12: - 27 x3_12 + q3_12 <= 0
 xq3_13: - 26 x3_13 + q3_13 <= 0
 xq3_14: - 29 x3_14 + q3_14 <= 0
 xq3_15: - 23 x3_15 + q3_15 <= 0
 xq3_16: - 21 x3_16 + q3_16 <= 0
 xq3_17: - 14 x3_17 + q3_17 <= 0
 xq3_18: - 18 x3_18 + q3_18 <= 0
 xq3_19: - 12 x3_19 + q3_19 <= 0
 xq3_20: - 28 x3_20 + q3_20 <= 0
 xq3_21: - 30 x3_21 + q3_21 <= 0
 xq3_22: - 34 x3_22 + q3_22 <= 0
 xq3_23: - 18 x3_23 + q3_23 <= 0
 xq3_24: - 17 x3_24 + q3_24 <= 0
 xq3_25: - 20 x3_25 + q3_25 <= 0
 xq3_26: - 17 x3_26 + q3_26 <= 0
 xq3_27: - 19 x3_27 + q3_27 <= 0
 xq3_28: - 11 x3_28 + q3_28 <= 0
 xq3_29: - 28 x3_29 + q3_29 <= 0
 xq3_30: - 11 x3_30 + q3_30 <= 0
 xq3_31: - 14 x3_31 + q3_31 <= 0
 xq3_32: - 16 x3_32 + q3_32 <= 0
 xq3_33: - 29 x3_33 + q3_33 <= 0
 xq3_34: - 12 x3_34 + q3_34 <= 0
 xq3_35: - 18 x3_35 + q3_35 <= 0
 xq3_36: - 29 x3_36 + q3_36 <= 0
 xq3_37: - 25 x3_37 + q3_37 <= 0
 xq3_38: - 20 x3_38 + q3_38 <= 0
 xq3_39: - 26 x3_39 + q3_39 <= 0
 xq3_40: - 14 x3_40 + q3_40 <= 0
 xq3_41: - 9 x3_41 + q3_41 <= 0
 xq3_42: - 17 x3_42 + q3_42 <= 0
 xq3_43: - 26 x3_43 + q3_43 <= 0
 xq3_44: - 14 x3_44 + q3_44 <= 0
 xq3_45: - 17 x3_45 + q3_45 <= 0
 xq3_46: - 20 x3_46 + q3_46 <= 0
 xq3_47: - 5 x3_47 + q3_47 <= 0
 xq3_48: - 14 x3_48 + q3_48 <= 0
 xq3_49: - 21 x3_49 + q3_49 <= 0
 xq3_50: - 32 x3_50 + q3_50 <= 0
 xq3_51: - 16 x3_51 + q3_51 <= 0
Bounds
 0 <= x0_0 <= 1
 0 <= x0_1 <= 1
 0 <= x0_2 <= 1
 0 <= x0_3 <= 1
 0 <= x0_4 <= 1
 0 <= x0_5 <= 1
 0 <= x0_6 <= 1
 0 <= x0_7 <= 1
 0 <= x0_8 <= 1
 0 <= x0_9 <= 1
 0 <= x0_10 <= 1
 0 <= x0_11 <= 1
 0 <= x0_12 <= 1
 0 <= x0_13 <= 1
 0 <= x0_14 <= 1
 0 <= x0_15 <= 1
 0 <= x0_16 <= 1
 0 <= x0_17 <= 1
 0 <= x0_18 <= 1
 0 <= x0_19 <= 1
 0 <= x0_20 <= 1
 0 <= x0_21 <= 1
 0 <= x0_22 <= 1
 0 <= x0_23 <= 1
 0 <= x0_24 <= 1
 0 <= x0_25 <= 1
 0 <= x0_26 <= 1
 0 <= x0_27 <= 1
 0 <= x0_28 <= 1
 0 <= x0_29 <= 1
 0 <= x0_30 <= 1
 0 <= x0_31 <= 1
 0 <= x0_32 <= 1
 0 <= x0_33 <= 1
 0 <= x0_34 <= 1
 0 <= x0_35 <= 1
 0 <= x0_36 <= 1
 0 <= x0_37 <= 1
 0 <= x0_38 <= 1
 0 <= x0_39 <= 1
 0 <= x0_40 <= 1
 0 <= x0_41 <= 1
 0 <= x0_42 <= 1
 0 <= x0_43 <= 1
 0 <= x0_44 <= 1
 0 <= x0_45 <= 1
 0 <= x0_46 <= 1
 0 <= x0_47 <= 1
 0 <= x0_48 <= 1
 0 <= x0_49 <= 1
 0 <= x0_50 <= 1
 0 <= x0_51 <= 1
 0 <= x1_0 <= 1
 0 <= x1_1 <= 1
 0 <= x1_2 <= 1
 0 <= x1_3 <= 1
 0 <= x1_4 <= 1
 0 <= x1_5 <= 1
 0 <= x1_6 <= 1
 0 <= x1_7 <= 1
 0 <= x1_8 <= 1
 0 <= x1_9 <= 1
 0 <= x1_10 <= 1
 0 <= x1_11 <= 1
 0 <= x1_12 <= 1
 0 <= x1_13 <= 1
 0 <= x1_14 <= 1
 0 <= x1_15 <= 1
 0 <= x1_16 <= 1
 0 <= x1_17 <= 1
 0 <= x1_18 <= 1
 0 <= x1_19 <= 1
 0 <= x1_20 <= 1
 0 <= x1_21 <= 1
 0 <= x1_22 <= 1
 0 <= x1_23 <= 1
 0 <= x1_24 <= 1
 0 <= x1_25 <= 1
 0 <= x1_26 <= 1
 0 <= x1_27 <= 1
 0 <= x1_28 <= 1
 0 <= x1_29 <= 1
 0 <= x1_30 <= 1
 0 <= x1_31 <= 1
 0 <= x1_32 <= 1
 0 <= x1_33 <= 1
 0 <= x1_34 <= 1
 0 <= x1_35 <= 1
 0 <= x1_36 <= 1
 0 <= x1_37 <= 1
 0 <= x1_38 <= 1
 0 <= x1_39 <= 1
 0 <= x1_40 <= 1
 0 <= x1_41 <= 1
 0 <= x1_42 <= 1
 0 <= x1_43 <= 1
 0 <= x1_44 <= 1
 0 <= x1_45 <= 1
 0 <= x1_46 <= 1
 0 <= x1_47 <= 1
 0 <= x1_48 <= 1
 0 <= x1_49 <= 1
 0 <= x1_50 <= 1
 0 <= x1_51 <= 1
 0 <= x2_0 <= 1
 0 <= x2_1 <= 1
 0 <= x2_2 <= 1
 0 <= x2_3 <= 1
 0 <= x2_4 <= 1
 0 <= x2_5 <= 1
 0 <= x2_6 <= 1
 0 <= x2_7 <= 1
 0 <= x2_8 <= 1
 0 <= x2_9 <= 1
 0 <= x2_10 <= 1
 0 <= x2_11 <= 1
 0 <= x2_12 <= 1
 0 <= x2_13 <= 1
 0 <= x2_14 <= 1
 0 <= x2_15 <= 1
 0 <= x2_16 <= 1
 0 <= x2_17 <= 1
 0 <= x2_18 <= 1
 0 <= x2_19 <= 1
 0 <= x2_20 <= 1
 0 <= x2_21 <= 1
 0 <= x2_22 <= 1
 0 <= x2_23 <= 1
 0 <= x2_24 <= 1
 0 <= x2_25 <= 1
 0 <= x2_26 <= 1
 0 <= x2_27 <= 1
 0 <= x2_28 <= 1
 0 <= x2_29 <= 1
 0 <= x2_30 <= 1
 0 <= x2_31 <= 1
 0 <= x2_32 <= 1
 0 <= x2_33 <= 1
 0 <= x2_34 <= 1
 0 <= x2_35 <= 1
 0 <= x2_36 <= 1
 0 <= x2_37 <= 1
 0 <= x2_38 <= 1
 0 <= x2_39 <= 1
 0 <= x2_40 <= 1
 0 <= x2_41 <= 1
 0 <= x2_42 <= 1
 0 <= x2_43 <= 1
 0 <= x2_44 <= 1
 0 <= x2_45 <= 1
 0 <= x2_46 <= 1
 0 <= x2_47 <= 1
 0 <= x2_48 <= 1
 0 <= x2_49 <= 1
 0 <= x2_50 <= 1
 0 <= x2_51 <= 1
 0 <= x3_0 <= 1
 0 <= x3_1 <= 1
 0 <= x3_2 <= 1
 0 <= x3_3 <= 1
 0 <= x3_4 <= 1
 0 <= x3_5 <= 1
 0 <= x3_6 <= 1
 0 <= x3_7 <= 1
 0 <= x3_8 <= 1
 0 <= x3_9 <= 1
 0 <= x3_10 <= 1
 0 <= x3_11 <= 1
 0 <= x3_12 <= 1
 0 <= x3_13 <= 1
 0 <= x3_14 <= 1
 0 <= x3_15 <= 1
 0 <= x3_16 <= 1
 0 <= x3_17 <= 1
 0 <= x3_18 <= 1
 0 <= x3_19 <= 1
 0 <= x3_20 <= 1
 0 <= x3_21 <= 1
 0 <= x3_22 <= 1
 0 <= x3_23 <= 1
 0 <= x3_24 <= 1
 0 <= x3_25 <= 1
 0 <= x3_26 <= 1
 0 <= x3_27 <= 1
 0 <= x3_28 <= 1
 0 <= x3_29 <= 1
 0 <= x3_30 <= 1
 0 <= x3_31 <= 1
 0 <= x3_32 <= 1
 0 <= x3_33 <= 1
 0 <= x3_34 <= 1
 0 <= x3_35 <= 1
 0 <= x3_36 <= 1
 0 <= x3_37 <= 1
 0 <= x3_38 <= 1
 0 <= x3_39 <= 1
 0 <= x3_40 <= 1
 0 <= x3_41 <= 1
 0 <= x3_42 <= 1
 0 <= x3_43 <= 1
 0 <= x3_44 <= 1
 0 <= x3_45 <= 1
 0 <= x3_46 <= 1
 0 <= x3_47 <= 1
 0 <= x3_48 <= 1
 0 <= x3_49 <= 1
 0 <= x3_50 <= 1
 0 <= x3_51 <= 1
 0 <= q0_0 <= 34
 0 <= q0_1 <= 34
 0 <= q0_2 <= 34
 0 <= q0_3 <= 34
 0 <= q0_4 <= 34
 0 <= q0_5 <= 34
 0 <= q0_6 <= 34
 0 <= q0_7 <= 34
 0 <= q0_8 <= 34
 0 <= q0_9 <= 34
 0 <= q0_10 <= 34
 0 <= q0_11 <= 34
 0 <= q0_12 <= 34
 0 <= q0_13 <= 34
 0 <= q0_14 <= 34
 0 <= q0_15 <= 34
 0 <= q0_16 <= 34
 0 <= q0_17 <= 34
 0 <= q0_18 <= 34
 0 <= q0_19 <= 34
 0 <= q0_20 <= 34
 0 <= q0_21 <= 34
 0 <= q0_22 <= 34
 0 <= q0_23 <= 34
 0 <= q0_24 <= 34
 0 <= q0_25 <= 34
 0 <= q0_26 <= 34
 0 <= q0_27 <= 34
 0 <= q0_28 <= 34
 0 <= q0_29 <= 34
 0 <= q0_30 <= 34
 0 <= q0_31 <= 34
 0 <= q0_32 <= 34
 0 <= q0_33 <= 34
 0 <= q0_34 <= 34
 0 <= q0_35 <= 34
 0 <= q0_36 <= 34
 0 <= q0_37 <= 34
 0 <= q0_38 <= 34
 0 <= q0_39 <= 34
 0 <= q0_40 <= 34
 0 <= q0_41 <= 34
 0 <= q0_42 <= 34
 0 <= q0_43 <= 34
 0 <= q0_44 <= 34
 0 <= q0_45 <= 34
 0 <= q0_46 <= 34
 0 <= q0_47 <= 34
 0 <= q0_48 <= 34
 0 <= q0_49 <= 34
 0 <= q0_50 <= 34
 0 <= q0_51 <= 34
 0 <= q1_0 <= 34
 0 <= q1_1 <= 34
 0 <= q1_2 <= 34
 0 <= q1_3 <= 34
 0 <= q1_4 <= 34
 0 <= q1_5 <= 34
 0 <= q1_6 <= 34
 0 <= q1_7 <= 34
 0 <= q1_8 <= 34
 0 <= q1_9 <= 34
 0 <= q1_10 <= 34
 0 <= q1_11 <= 34
 0 <= q1_12 <= 34
 0 <= q1_13 <= 34
 0 <= q1_14 <= 34
 0 <= q1_15 <= 34
 0 <= q1_16 <= 34
 0 <= q1_17 <= 34
 0 <= q1_18 <= 34
 0 <= q1_19 <= 34
 0 <= q1_20 <= 34
 0 <= q1_21 <= 34
 0 <= q1_22 <= 34
 0 <= q1_23 <= 34
 0 <= q1_24 <= 34
 0 <= q1_25 <= 34
 0 <= q1_26 <= 34
 0 <= q1_27 <= 34
 0 <= q1_28 <= 34
 0 <= q1_29 <= 34
 0 <= q1_30 <= 34
 0 <= q1_31 <= 34
 0 <= q1_32 <= 34
 0 <= q1_33 <= 34
 0 <= q1_34 <= 34
 0 <= q1_35 <= 34
 0 <= q1_36 <= 34
 0 <= q1_37 <= 34
 0 <= q1_38 <= 34
 0 <= q1_39 <= 34
 0 <= q1_40 <= 34
 0 <= q1_41 <= 34
 0 <= q1_42 <= 34
 0 <= q1_43 <= 34
 0 <= q1_44 <= 34
 0 <= q1_45 <= 34
 0 <= q1_46 <= 34
 0 <= q1_47 <= 34
 0 <= q1_48 <= 34
 0 <= q1_49 <= 34
 0 <= q1_50 <= 34
 0 <= q1_51 <= 34
 0 <= q2_0 <= 34
 0 <= q2_1 <= 34
 0 <= q2_2 <= 34
 0 <= q2_3 <= 34
 0 <= q2_4 <= 34
 0 <= q2_5 <= 34
 0 <= q2_6 <= 34
 0 <= q2_7 <= 34
 0 <= q2_8 <= 34
 0 <= q2_9 <= 34
 0 <= q2_10 <= 34
 0 <= q2_11 <= 34
 0 <= q2_12 <= 34
 0 <= q2_13 <= 34
 0 <= q2_14 <= 34
 0 <= q2_15 <= 34
 0 <= q2_16 <= 34
 0 <= q2_17 <= 34
 0 <= q2_18 <= 34
 0 <= q2_19 <= 34
 0 <= q2_20 <= 34
 0 <= q2_21 <= 34
 0 <= q2_22 <= 34
 0 <= q2_23 <= 34
 0 <= q2_24 <= 34
 0 <= q2_25 <= 34
 0 <= q2_26 <= 34
 0 <= q2_27 <= 34
 0 <= q2_28 <= 34
 0 <= q2_29 <= 34
 0 <= q2_30 <= 34
 0 <= q2_31 <= 34
 0 <= q2_32 <= 34
 0 <= q2_33 <= 34
 0 <= q2_34 <= 34
 0 <= q2_35 <= 34
 0 <= q2_36 <= 34
 0 <= q2_37 <= 34
 0 <= q2_38 <= 34
 0 <= q2_39 <= 34
 0 <= q2_40 <= 34
 0 <= q2_41 <= 34
 0 <= q2_42 <= 34
 0 <= q2_43 <= 34
 0 <= q2_44 <= 34
 0 <= q2_45 <= 34
 0 <= q2_46 <= 34
 0 <= q2_47 <= 34
 0 <= q2_48 <= 34
 0 <= q2_49 <= 34
 0 <= q2_50 <= 34
 0 <= q2_51 <= 34
 0 <= q3_0 <= 34
 0 <= q3_1 <= 34
 0 <= q3_2 <= 34
 0 <= q3_3 <= 34
 0 <= q3_4 <= 34
 0 <= q3_5 <= 34
 0 <= q3_6 <= 34
 0 <= q3_7 <= 34
 0 <= q3_8 <= 34
 0 <= q3_9 <= 34
 0 <= q3_10 <= 34
 0 <= q3_11 <= 34
 0 <= q3_12 <= 34
 0 <= q3_13 <= 34
 0 <= q3_14 <= 34
 0 <= q3_15 <= 34
 0 <= q3_16 <= 34
 0 <= q3_17 <= 34
 0 <= q3_18 <= 34
 0 <= q3_19 <= 34
 0 <= q3_20 <= 34
 0 <= q3_21 <= 34
 0 <= q3_22 <= 34
 0 <= q3_23 <= 34
 0 <= q3_24 <= 34
 0 <= q3_25 <= 34
 0 <= q3_26 <= 34
 0 <= q3_27 <= 34
 0 <= q3_28 <= 34
 0 <= q3_29 <= 34
 0 <= q3_30 <= 34
 0 <= q3_31 <= 34
 0 <= q3_32 <= 34
 0 <= q3_33 <= 34
 0 <= q3_34 <= 34
 0 <= q3_35 <= 34
 0 <= q3_36 <= 34
 0 <= q3_37 <= 34
 0 <= q3_38 <= 34
 0 <= q3_39 <= 34
 0 <= q3_40 <= 34
 0 <= q3_41 <= 34
 0 <= q3_42 <= 34
 0 <= q3_43 <= 34
 0 <= q3_44 <= 34
 0 <= q3_45 <= 34
 0 <= q3_46 <= 34
 0 <= q3_47 <= 34
 0 <= q3_48 <= 34
 0 <= q3_49 <= 34
 0 <= q3_50 <= 34
 0 <= q3_51 <= 34
Generals
 x0_0  x0_1  x0_2  x0_3  x0_4  x0_5  x0_6  x0_7  x0_8  x0_9  x0_10  x0_11 
 x0_12  x0_13  x0_14  x0_15  x0_16  x0_17  x0_18  x0_19  x0_20  x0_21  x0_22 
 x0_23  x0_24  x0_25  x0_26  x0_27  x0_28  x0_29  x0_30  x0_31  x0_32  x0_33 
 x0_34  x0_35  x0_36  x0_37  x0_38  x0_39  x0_40  x0_41  x0_42  x0_43  x0_44 
 x0_45  x0_46  x0_47  x0_48  x0_49  x0_50  x0_51  x1_0  x1_1  x1_2  x1_3  x1_4 
 x1_5  x1_6  x1_7  x1_8  x1_9  x1_10  x1_11  x1_12  x1_13  x1_14  x1_15  x1_16 
 x1_17  x1_18  x1_19  x1_20  x1_21  x1_22  x1_23  x1_24  x1_25  x1_26  x1_27 
 x1_28  x1_29  x1_30  x1_31  x1_32  x1_33  x1_34  x1_35  x1_36  x1_37  x1_38 
 x1_39  x1_40  x1_41  x1_42  x1_43  x1_44  x1_45  x1_46  x1_47  x1_48  x1_49 
 x1_50  x1_51  x2_0  x2_1  x2_2  x2_3  x2_4  x2_5  x2_6  x2_7  x2_8  x2_9 
 x2_10  x2_11  x2_12  x2_13  x2_14  x2_15  x2_16  x2_17  x2_18  x2_19  x2_20 
 x2_21  x2_22  x2_23  x2_24  x2_25  x2_26  x2_27  x2_28  x2_29  x2_30  x2_31 
 x2_32  x2_33  x2_34  x2_35  x2_36  x2_37  x2_38  x2_39  x2_40  x2_41  x2_42 
 x2_43  x2_44  x2_45  x2_46  x2_47  x2_48  x2_49  x2_50  x2_51  x3_0  x3_1 
 x3_2  x3_3  x3_4  x3_5  x3_6  x3_7  x3_8  x3_9  x3_10  x3_11  x3_12  x3_13 
 x3_14  x3_15  x3_16  x3_17  x3_18  x3_19  x3_20  x3_21  x3_22  x3_23  x3_24 
 x3_25  x3_26  x3_27  x3_28  x3_29  x3_30  x3_31  x3_32  x3_33  x3_34  x3_35 
 x3_36  x3_37  x3_38  x3_39  x3_40  x3_41  x3_42  x3_43  x3_44  x3_45  x3_46 
 x3_47  x3_48  x3_49  x3_50  x3_51  q0_0  q0_1  q0_2  q0_3  q0_4  q0_5  q0_6 
 q0_7  q0_8  q0_9  q0_10  q0_11  q0_12  q0_13  q0_14  q0_15  q0_16  q0_17 
 q0_18  q0_19  q0_20  q0_21  q0_22  q0_23  q0_24  q0_25  q0_26  q0_27  q0_28 
 q0_29  q0_30  q0_31  q0_32  q0_33  q0_34  q0_35  q0_36  q0_37  q0_38  q0_39 
 q0_40  q0_41  q0_42  q0_43  q0_44  q0_45  q0_46  q0_47  q0_48  q0_49  q0_50 
 q0_51  q1_0  q1_1  q1_2  q1_3  q1_4  q1_5  q1_6  q1_7  q1_8  q1_9  q1_10 
 q1_11  q1_12  q1_13  q1_14  q1_15  q1_16  q1_17  q1_18  q1_19  q1_20  q1_21 
 q1_22  q1_23  q1_24  q1_25  q1_26  q1_27  q1_28  q1_29  q1_30  q1_31  q1_32 
 q1_33  q1_34  q1_35  q1_36  q1_37  q1_38  q1_39  q1_40  q1_41  q1_42  q1_43 
 q1_44  q1_45  q1_46  q1_47  q1_48  q1_49  q1_50  q1_51  q2_0  q2_1  q2_2 
 q2_3  q2_4  q2_5  q2_6  q2_7  q2_8  q2_9  q2_10  q2_11  q2_12  q2_13  q2_14 
 q2_15  q2_16  q2_17  q2_18  q2_19  q2_20  q2_21  q2_22  q2_23  q2_24  q2_25 
 q2_26  q2_27  q2_28  q2_29  q2_30  q2_31  q2_32  q2_33  q2_34  q2_35  q2_36 
 q2_37  q2_38  q2_39  q2_40  q2_41  q2_42  q2_43  q2_44  q2_45  q2_46  q2_47 
 q2_48  q2_49  q2_50  q2_51  q3_0  q3_1  q3_2  q3_3  q3_4  q3_5  q3_6  q3_7 
 q3_8  q3_9  q3_10  q3_11  q3_12  q3_13  q3_14  q3_15  q3_16  q3_17  q3_18 
 q3_19  q3_20  q3_21  q3_22  q3_23  q3_24  q3_25  q3_26  q3_27  q3_28  q3_29 
 q3_30  q3_31  q3_32  q3_33  q3_34  q3_35  q3_36  q3_37  q3_38  q3_39  q3_40 
 q3_41  q3_42  q3_43  q3_44  q3_45  q3_46  q3_47  q3_48  q3_49  q3_50  q3_51 
End
